; benchmark generated from python API
(set-info :status unknown)
(declare-fun S_5 () Real)
(declare-fun S_2 () Real)
(declare-fun C () Real)
(declare-fun S_0 () Real)
(declare-fun A_0 () Real)
(declare-fun L_0 () Real)
(declare-fun L0 () Real)
(declare-fun B () Real)
(declare-fun A_1 () Real)
(declare-fun S_1 () Real)
(declare-fun S_4 () Real)
(declare-fun A_2 () Real)
(declare-fun A_5 () Real)
(declare-fun L_5 () Real)
(declare-fun L_4 () Real)
(declare-fun L_3 () Real)
(declare-fun L_2 () Real)
(declare-fun S_3 () Real)
(declare-fun L_1 () Real)
(declare-fun A_4 () Real)
(declare-fun A_3 () Real)
(assert
 (let (($x42 (>= L0 0.0)))
 (let (($x668 (>= C 5.0)))
 (let (($x921 (>= B 5.0)))
 (let (($x1423 (not (= L_4 L_5))))
 (let (($x967 (not (<= L_4 L_3))))
 (let (($x965 (not (<= L_3 L_2))))
 (let (($x76008 (or $x965 $x967 $x1423 (<= (+ A_5 (* (- 1.0) A_2) (* (- 3.0) C)) B))))
 (let ((?x368 (* (- 1.0) C)))
 (let ((?x332 (* (- 1.0) L_5)))
 (let ((?x630 (* (- 1.0) B)))
 (let ((?x34627 (+ ?x630 ?x332 A_5 ?x368)))
 (let (($x34673 (<= (+ A_4 (* (- 1.0) L_0)) ?x34627)))
 (let (($x74870 (or (= (+ A_5 ?x332 ?x630) (+ A_4 (* (- 1.0) L_0) C)) (not $x34673))))
 (let (($x32741 (<= (+ A_2 (* (- 1.0) A_1) ?x368) 0.0)))
 (let (($x34246 (not $x32741)))
 (let (($x33649 (<= 0.0 (+ C (* (- 1.0) A_1) L_0 S_0))))
 (let (($x33650 (not $x33649)))
 (let (($x32964 (<= A_4 (+ A_3 C))))
 (let (($x33021 (not $x32964)))
 (let (($x32146 (<= (+ ?x368 (* (- 1.0) A_2) A_3) 0.0)))
 (let (($x32319 (not $x32146)))
 (let (($x11014 (= L_5 L_0)))
 (let ((?x4767 (* (- 4.0) C)))
 (let ((?x34598 (+ ?x630 ?x332 A_5 ?x4767)))
 (let ((?x690 (* (- 1.0) L_0)))
 (let ((?x833 (+ A_1 ?x690)))
 (let (($x34971 (<= ?x833 ?x34598)))
 (let (($x4627 (not (<= L_3 L_0))))
 (let (($x99 (= L_5 L_4)))
 (let (($x75150 (or $x99 $x4627 $x32741 $x33650 (not (<= (+ A_2 ?x690 L_3 (* (- 1.0) A_3) C) 0.0)) $x34673 $x34971)))
 (let (($x11396 (not (= L_0 L_4))))
 (let (($x73678 (or $x11014 $x11396 $x33021 $x33650 $x34673 $x34971 (<= 0.0 (+ (* (- 2.0) C) A_4 (* (- 1.0) A_2))))))
 (let ((?x1548 (* (- 3.0) C)))
 (let ((?x34499 (+ ?x630 ?x332 A_5 ?x1548)))
 (let ((?x1424 (+ A_2 ?x690)))
 (let (($x34551 (<= ?x1424 ?x34499)))
 (let ((?x9650 (* (- 5.0) C)))
 (let ((?x34615 (+ ?x630 ?x332 A_5 ?x9650)))
 (let (($x34631 (<= S_0 ?x34615)))
 (let (($x34911 (<= (+ A_2 ?x690 L_5 (* (- 1.0) A_5) (* 3.0 C)) 0.0)))
 (let (($x34506 (<= (+ A_1 ?x690 L_5 (* (- 1.0) A_5) (* 4.0 C)) 0.0)))
 (let ((?x563 (* (- 1.0) L_3)))
 (let ((?x32909 (+ ?x630 ?x563 A_3 ?x368)))
 (let (($x33190 (<= ?x1424 ?x32909)))
 (let (($x32887 (<= (+ A_1 ?x690 L_3 (* (- 1.0) A_3) (* 2.0 C)) 0.0)))
 (let (($x4161 (= L_5 L_3)))
 (let (($x1381 (not (<= L_2 L_0))))
 (let (($x76242 (or $x1381 $x4161 $x32887 $x33021 $x33190 $x34673 (not (= (+ A_3 ?x563 (* 2.0 C)) (+ A_5 ?x332))))))
 (let (($x35602 (not (= (+ A_4 ?x563 C) (+ A_5 ?x332)))))
 (let (($x957 (<= L_1 L_0)))
 (let (($x958 (not $x957)))
 (let (($x33821 (or $x958 $x4161 $x33190 $x35602 (<= S_1 (+ ?x630 ?x563 A_4 ?x1548)) (not (= (+ A_4 ?x368) A_3)))))
 (let (($x34500 (<= S_2 ?x34499)))
 (let (($x962 (not (<= L_2 L_1))))
 (let (($x74121 (or (= (+ ?x4767 ?x630 (* (- 1.0) A_1) A_5 ?x332 L_0) 0.0) (not $x34971))))
 (let (($x72972 (or (not (= (+ A_3 ?x690 (* 2.0 C)) (+ A_5 ?x332 ?x630))) (<= (+ ?x4767 ?x690 (* (- 1.0) S_0) A_3) 0.0))))
 (let (($x2080 (not (= L_3 L_4))))
 (let ((?x695 (* (- 2.0) C)))
 (let ((?x34450 (+ ?x630 ?x332 A_5 ?x695)))
 (let ((?x2943 (+ A_3 ?x690)))
 (let (($x34451 (<= ?x2943 ?x34450)))
 (let (($x4417 (not (<= L_3 L_1))))
 (let (($x43067 (or $x958 $x4161 $x4417 $x33021 $x35602 (<= (+ A_2 ?x690 L_3 (* (- 1.0) A_4) (* 2.0 C)) 0.0))))
 (let ((?x557 (* (- 1.0) L_4)))
 (let ((?x33833 (+ ?x630 ?x557 A_4 ?x368)))
 (let (($x33845 (<= ?x2943 ?x33833)))
 (let (($x9804 (= L_4 L_0)))
 (let (($x9261 (not (= L_0 L_3))))
 (let (($x73508 (or $x9261 $x9804 $x33845 (<= (+ A_2 ?x690 L_4 (* (- 1.0) A_4) (* 2.0 C)) 0.0))))
 (let ((?x358 (* (- 1.0) L_1)))
 (let ((?x1009 (+ A_2 ?x358)))
 (let (($x4428 (>= S_3 ?x1009)))
 (let (($x75265 (or $x4428 (<= (+ ?x690 A_1 (* (- 1.0) S_3) C) 0.0) (<= (+ (* 2.0 C) (* (- 1.0) S_3) S_0) 0.0))))
 (let (($x76732 (or $x11014 $x11396 $x34673 (<= (+ A_3 ?x690 L_5 (* (- 1.0) A_5) (* 2.0 C)) 0.0))))
 (let (($x76828 (or (= (+ A_5 ?x332 ?x630) (+ A_2 ?x690 (* 3.0 C))) (not $x34551))))
 (let (($x34650 (<= (+ A_4 ?x690 L_5 (* (- 1.0) A_5) C) 0.0)))
 (let (($x34752 (not $x34650)))
 (let ((?x34292 (+ A_4 ?x690 C)))
 (let ((?x273 (+ A_5 ?x332)))
 (let (($x34751 (= ?x273 ?x34292)))
 (let (($x34420 (or (= (+ A_5 ?x332 ?x630) (+ A_3 ?x690 (* 2.0 C))) (not $x34451))))
 (let (($x44552 (or (not (<= ?x1424 (+ ?x630 ?x557 A_4 ?x695))) (= (+ A_4 ?x557 ?x630) (+ A_2 ?x690 (* 2.0 C))))))
 (let (($x39456 (or (not (<= ?x833 (+ ?x630 ?x557 A_4 ?x1548))) (= (+ ?x1548 A_4 ?x557 ?x630 L_0 (* (- 1.0) A_1)) 0.0))))
 (let ((?x33862 (+ ?x630 ?x557 A_4 ?x1548)))
 (let (($x33931 (<= ?x833 ?x33862)))
 (let ((?x33915 (+ ?x630 ?x557 A_4 ?x695)))
 (let (($x33916 (<= ?x1424 ?x33915)))
 (let (($x89 (= L_4 L_3)))
 (let (($x39170 (or $x89 $x958 $x962 $x33845 $x33916 $x33931 (<= S_0 (+ ?x630 ?x557 A_4 ?x4767)))))
 (let (($x32676 (<= A_2 (+ A_1 ?x630 C))))
 (let (($x75143 (or $x89 $x1381 $x32676 $x33845 (<= (+ A_1 ?x690 L_4 (* (- 1.0) A_4) (* 3.0 C)) 0.0))))
 (let (($x3848 (= L_5 L_2)))
 (let (($x2747 (not (= L_2 L_4))))
 (let (($x73583 (or $x958 $x962 $x2747 $x3848 (not (= (+ A_4 (* (- 1.0) L_2) C) ?x273)) (<= (+ A_3 ?x690 L_2 (* (- 1.0) A_4) C) 0.0))))
 (let (($x4504 (= L_4 L_2)))
 (let (($x1882 (not (= L_2 L_3))))
 (let (($x33994 (or $x958 $x962 $x1882 $x4504 (<= (+ A_3 ?x690 L_4 (* (- 1.0) A_4) C) 0.0))))
 (let (($x39114 (or (= (+ ?x368 A_4 ?x557 ?x630 L_0 (* (- 1.0) A_3)) 0.0) (not $x33845))))
 (let (($x32904 (<= (+ A_2 ?x690 L_3 (* (- 1.0) A_3) C) 0.0)))
 (let (($x1256 (not (= L_1 L_2))))
 (let (($x33826 (or $x89 $x958 $x1256 $x32904 (not (= (+ A_3 ?x563 C) (+ A_4 ?x557))))))
 (let (($x37584 (or (<= (+ ?x690 A_1 (* (- 1.0) S_2)) 0.0) (<= (+ C (* (- 1.0) S_2) S_0) 0.0))))
 (let (($x79 (= L_3 L_2)))
 (let (($x39104 (or (= (+ ?x695 ?x630 L_0 (* (- 1.0) A_1) A_3 ?x563) 0.0) (not (<= ?x833 (+ ?x630 ?x563 A_3 ?x695))))))
 (let ((?x33211 (+ A_4 ?x358 C)))
 (let ((?x952 (+ A_5 ?x332 ?x630)))
 (let (($x33235 (= ?x952 ?x33211)))
 (let (($x32772 (not $x32676)))
 (let (($x6709 (= L_5 L_1)))
 (let (($x33348 (= ?x952 (+ A_3 ?x358 (* 2.0 C)))))
 (let (($x968 (<= L_5 L_4)))
 (let (($x2499 (not (= L_1 L_4))))
 (let (($x42989 (or $x2499 $x6709 $x32146 $x32772 $x33235 (not (<= (+ ?x695 (* (- 1.0) A_2) A_4) 0.0)))))
 (let (($x32546 (<= (+ ?x695 (* (- 1.0) A_2) A_4) 0.0)))
 (let (($x39150 (or $x968 $x4417 $x32146 $x32546 $x32772 (= ?x952 (+ A_2 ?x358 (* 3.0 C))))))
 (let (($x73822 (or $x1423 (not (<= L_4 L_2)) (<= (+ A_5 (* (- 1.0) A_3) ?x695) B))))
 (let (($x42382 (or $x33235 (not (<= A_4 (+ A_1 ?x630 (* 3.0 C)))) (not (= ?x273 (+ A_1 ?x358 (* 4.0 C)))))))
 (let (($x32306 (<= (+ A_4 (* (- 1.0) A_1) ?x1548) 0.0)))
 (let (($x59 (= L_1 L_0)))
 (let (($x33229 (<= A_4 (+ A_1 ?x630 (* 3.0 C)))))
 (let (($x33222 (= ?x273 (+ A_1 ?x358 (* 4.0 C)))))
 (let ((?x32750 (+ A_4 ?x563 C)))
 (let (($x32751 (= ?x952 ?x32750)))
 (let (($x4273 (<= L_5 L_3)))
 (let (($x33326 (<= (+ A_5 (* (- 1.0) A_1) ?x4767) 0.0)))
 (let (($x2491 (not (= L_1 L_5))))
 (let (($x31094 (<= (+ ?x1548 (* (- 1.0) A_2) A_5) 0.0)))
 (let (($x32592 (<= A_3 (+ A_1 ?x630 (* 2.0 C)))))
 (let ((?x950 (+ A_4 ?x557 ?x630)))
 (let (($x975 (<= S_4 ?x950)))
 (let (($x33126 (not $x32592)))
 (let (($x33125 (= (+ A_3 ?x358 C) ?x950)))
 (let (($x4866 (= L_4 L_1)))
 (let (($x2487 (not (= L_1 L_3))))
 (let (($x40229 (or $x89 $x957 $x962 $x32592 $x32676 (= (+ A_4 ?x557) (+ A_1 ?x358 (* 3.0 C))))))
 (let (($x32781 (<= A_4 (+ A_3 ?x630 C))))
 (let (($x32512 (<= 0.0 (+ C A_2 ?x630 (* (- 1.0) A_3)))))
 (let (($x32842 (not $x32512)))
 (let ((?x342 (* (- 1.0) L_2)))
 (let ((?x32712 (+ A_4 ?x342 C)))
 (let (($x32713 (= ?x952 ?x32712)))
 (let (($x69 (= L_2 L_1)))
 (let (($x76426 (or $x2747 $x3848 $x32512 $x32713 (not (<= 0.0 (+ (* 2.0 C) A_2 ?x630 (* (- 1.0) A_4)))))))
 (let (($x32635 (<= 0.0 (+ (* 2.0 C) A_2 ?x630 (* (- 1.0) A_4)))))
 (let (($x74144 (or $x69 $x965 $x968 $x32512 $x32635 (= (+ ?x1548 (* (- 1.0) A_2) L_2 A_5 ?x332) 0.0))))
 (let (($x75104 (or $x69 $x89 $x32512 (= (+ A_2 ?x342 (* 2.0 C)) (+ A_4 ?x557)))))
 (let (($x45525 (or (not (<= ?x833 (+ ?x630 ?x342 A_2 ?x368))) (= (+ ?x368 A_2 ?x342 ?x630 L_0 (* (- 1.0) A_1)) 0.0))))
 (let (($x4337 (= L_3 L_1)))
 (let (($x36603 (or $x59 $x79 $x32676 (= (+ A_3 ?x563) (+ A_1 ?x358 (* 2.0 C))))))
 (let ((?x398 (+ ?x630 ?x342 A_2 ?x368)))
 (let (($x551 (<= ?x833 ?x398)))
 (let (($x32611 (or $x69 (<= (+ A_1 ?x690 L_2 (* (- 1.0) A_2) C) 0.0) $x958)))
 (let (($x41 (>= L_0 L0)))
 (let (($x131 (>= S_1 S_0)))
 (let (($x134 (>= S_2 S_1)))
 (let (($x137 (>= S_3 S_2)))
 (let (($x145 (>= A_1 A_0)))
 (let (($x146 (>= A_2 A_1)))
 (let (($x147 (>= A_3 A_2)))
 (and (<= (+ A_4 ?x557) S_5) (<= (+ A_3 ?x563) S_4) (not (<= (+ A_4 ?x557) S_4)) $x147 $x146 $x145 $x137 $x134 $x131 $x41 (or $x99 (<= S_5 ?x952)) (or $x89 $x975) (or $x79 (<= S_3 (+ A_3 ?x563 ?x630))) (>= S_3 (+ A_2 ?x342 ?x630)) (or $x59 (<= S_1 (+ A_1 ?x358 ?x630))) (or $x69 $x962) (or $x69 (<= S_2 (+ A_2 ?x342 ?x630))) (or $x79 $x89 (= (+ A_4 ?x557) (+ A_3 ?x563 C))) (or $x89 $x99 (= ?x273 (+ A_4 ?x557 C))) (or $x69 $x79 (= (+ A_3 ?x563) (+ A_2 ?x342 C))) (>= S_2 (+ A_1 ?x358 ?x630)) (or $x59 $x958) (or $x59 (<= S_0 (+ ?x630 ?x358 A_1 ?x368))) $x32611 (or $x69 (<= S_0 (+ ?x630 ?x342 A_2 ?x695)) $x551) (or $x89 $x967) (or $x89 (<= (+ A_5 (* (- 1.0) A_4) ?x368) 0.0) $x1423) (>= S_2 ?x398) (or $x89 (<= S_5 (+ A_4 ?x557 ?x630 C))) (<= (+ L_0 (* (- 1.0) A_1) S_1) 0.0) (>= S_0 (+ ?x630 ?x358 A_1 ?x695)) (>= S_1 (+ ?x630 ?x358 A_1 ?x368)) (or $x59 (<= S_3 (+ A_1 ?x358 ?x630 (* 2.0 C)))) (<= (+ ?x630 ?x358 A_1 ?x368) (+ A_0 ?x690)) (or $x69 (<= S_1 ?x398)) (or $x59 (<= S_2 (+ A_1 ?x358 ?x630 C))) (or $x99 (not $x968)) (<= (+ ?x630 ?x342 A_2 ?x695) (+ A_0 ?x690)) (>= S_1 (+ ?x630 ?x342 A_2 ?x695)) (>= S_0 (+ ?x630 ?x342 A_2 ?x1548)) (or $x59 $x69 (= (+ A_2 ?x342) (+ A_1 ?x358 C))) (or $x59 $x1256 $x32741) (or $x32676 (>= S_3 (+ A_1 ?x358 ?x630 C))) (or $x4273 $x32751 (not $x32781)) (or $x4428 $x32772) $x36603 (or $x4337 $x32772 (= (+ A_3 ?x563 ?x630) (+ A_2 ?x358 C))) (<= S_5 (+ A_5 ?x563)) (or $x79 $x965) $x45525 (or $x69 (<= (+ ?x368 (* (- 1.0) A_2) L_2 B S_3) 0.0)) (or $x79 (<= S_2 ?x32909)) (or $x4504 $x32842 (= (+ A_3 ?x342 C) ?x950)) (<= S_5 (+ A_5 ?x557)) $x75104 (or $x79 $x2080 $x32964) (or $x79 $x967 $x1423 (<= (+ A_5 (* (- 1.0) A_3) ?x695) 0.0)) (or $x69 (<= (+ ?x695 (* (- 1.0) A_2) L_2 B S_4) 0.0)) $x74144 $x76426 (or $x69 $x2080 $x32319 $x32546) (or $x69 (<= (+ ?x1548 (* (- 1.0) A_2) L_2 B S_5) 0.0)) (or $x968 $x32842 $x32964 (= ?x952 (+ A_3 ?x342 (* 2.0 C)))) (or $x3848 $x32713 $x32842 $x33021) (or (not (= L_3 L_5)) (<= (+ A_5 (* (- 1.0) A_4) ?x368) B)) (or $x69 $x965 $x967 $x1423 $x31094) (or $x79 (<= S_4 (+ A_3 ?x563 ?x630 C))) (or $x79 $x968 $x32781 (= ?x273 (+ A_3 ?x563 (* 2.0 C)))) (<= S_3 (+ A_3 ?x342)) (or $x79 (<= S_5 (+ A_3 ?x563 ?x630 (* 2.0 C)))) $x40229 (or $x2487 $x4866 $x32676 $x33125 $x33126) (or $x89 $x32146 $x32772 (= ?x950 (+ A_2 ?x358 (* 2.0 C)))) (or $x4866 $x32319 $x32772 $x33125) (or $x1882 (>= S_3 (+ ?x630 ?x342 A_3 ?x368))) (or $x968 (not (<= L_4 L_1)) $x32676 $x32964 $x33126 $x33348) (or $x2499 $x6709 $x32676 $x33021 $x33126 $x33235) (or $x59 $x1882 $x32146 (<= (+ A_3 (* (- 1.0) A_1) ?x695) 0.0)) (or $x99 $x975 (not (= (+ A_4 ?x557 C) ?x273))) (or $x957 $x962 $x968 $x32592 $x32676 $x32964 $x33222) (or $x59 $x2080 $x32306 $x32319 $x32546) (or $x59 $x967 $x1423 $x31094 $x32964 $x33326) (or $x59 (<= S_4 (+ A_1 ?x358 ?x630 (* 3.0 C)))) (or $x59 (<= S_5 (+ A_1 ?x358 ?x630 (* 4.0 C)))) (or $x59 $x2491 $x33326) (or $x957 $x4273 $x32676 $x32751 $x33021 $x33222) (or $x59 $x33229 (not (= ?x33211 ?x952))) (or $x59 $x2080 $x32146 $x32306 $x32964) $x42382 (<= S_5 ?x32750) (or $x2747 (<= (+ A_4 (* (- 1.0) A_3) ?x368) B)) (<= S_5 (+ A_3 ?x342 (* 2.0 C))) $x73822 $x39150 $x42989 (<= S_2 ?x1009) (<= (+ ?x368 L_0 S_1 (* (- 1.0) A_0)) 0.0) (or (not $x33190) (= (+ A_3 ?x563 ?x630) (+ A_2 ?x690 C))) (<= (+ ?x630 ?x563 A_3 ?x1548) (+ A_0 ?x690)) (or $x968 $x32319 $x32772 $x32964 $x33348) (or $x6709 $x32319 $x32772 $x33021 $x33235) (or $x69 $x1882 $x32146) (or $x958 $x1256 $x4337 $x32904) (>= S_3 ?x32909) (or $x4428 (<= (+ C S_1 (* (- 1.0) S_3)) 0.0)) (or $x79 $x958 $x33190 (<= S_1 (+ ?x630 ?x563 A_3 ?x695))) $x39104 (or $x79 $x958 (<= S_0 (+ ?x630 ?x563 A_3 ?x1548)) $x33190 $x33649) (or $x79 $x33190 (<= ?x833 (+ ?x630 ?x563 A_3 ?x695)) $x33650) $x37584 (>= S_2 (+ ?x630 ?x563 A_3 ?x695)) (>= S_1 (+ ?x630 ?x563 A_3 ?x1548)) (or $x79 (not (= L_0 L_1)) $x32887 $x33190) (<= (+ ?x695 S_1 (* (- 1.0) S_0)) 0.0) (>= S_0 (+ ?x630 ?x563 A_3 ?x4767)) $x33826 $x39114 $x33994 (or $x89 (<= S_3 ?x33833)) (>= S_0 (+ ?x630 ?x557 A_4 ?x9650)) $x73583 (<= (+ ?x630 ?x557 A_4 ?x4767) (+ A_0 ?x690)) (or $x89 $x958 $x962 $x33845 (<= S_2 ?x33915)) (>= S_3 ?x33915) (or $x89 $x958 $x962 $x33845 $x33916 (<= S_1 ?x33862)) $x75143 $x39170 $x39456 $x44552 (>= S_2 ?x33862) (or $x958 $x962 $x965 $x2080 $x4161 $x34650) (>= S_2 ?x34598) (or $x11014 $x11396 (<= S_4 ?x34627)) (>= S_1 (+ ?x630 ?x557 A_4 ?x4767)) (<= (+ ?x695 L_0 (* (- 1.0) A_0) S_2) 0.0) (<= (+ ?x695 (* (- 1.0) S_3) S_4) 0.0) (<= (+ L_0 (* (- 1.0) A_1) S_2 ?x368) 0.0) (<= S_4 (+ A_3 ?x342 C)) (or $x34751 $x34752 (not (<= A_3 (+ ?x630 A_4 ?x368)))) $x34420 (or $x34751 $x34752 (not (<= A_2 (+ ?x630 A_4 ?x695)))) $x76828 (<= ?x34615 (+ A_0 ?x690)) (or $x11014 $x11396 $x32964 $x34451 $x34500) $x76732 (>= S_3 ?x34499) (or $x99 $x958 $x962 $x965 $x34673 (<= S_3 ?x34450)) (or $x11014 $x11396 $x32964 $x34451 $x34911) (or $x11014 $x11396 $x32964 $x34451 $x34551 (<= S_1 ?x34598)) (or $x11014 $x11396 $x32964 $x34451 $x34506 $x34551) $x75265 (<= (+ ?x695 (* (- 1.0) S_1) S_2) 0.0) (<= (+ ?x1548 S_2 (* (- 1.0) S_0)) 0.0) $x73508 $x43067 (>= S_1 ?x34615) (or $x11014 $x11396 $x32964 $x34451 $x34551 $x34631 $x34971) (<= (+ ?x4767 L_0 (* (- 1.0) A_0) S_4) 0.0) (or $x2080 $x32964 (<= (+ A_4 (* (- 1.0) A_2) ?x695) B)) $x72972 (>= S_0 (+ ?x630 ?x332 A_5 (* (- 6.0) C))) $x74121 (<= S_4 (+ A_2 ?x358 (* 2.0 C))) (<= S_3 (+ A_2 ?x358 C)) (or $x958 $x962 $x965 $x4161 $x33021 $x34500 $x34673) $x33821 $x76242 (or $x11014 $x11396 $x33021 $x34506 $x34551 $x34673) (or $x11014 $x11396 $x33021 $x34551 (<= S_1 ?x34598) $x34673) (or $x2487 (<= (+ A_3 (* (- 1.0) A_2) ?x368) B)) (or $x11014 $x11396 $x33021 $x34673 $x34911) (or $x11014 $x11396 $x33021 $x33649 $x34551 $x34631 $x34673) (or $x99 $x4627 $x32146 $x33650 $x34246 $x34551 $x34673) (<= (+ ?x1548 L_0 (* (- 1.0) A_0) S_3) 0.0) (<= (+ ?x695 (* (- 1.0) S_2) S_3) 0.0) $x73678 $x75150 (or $x11014 $x32319 $x33021 $x33650 $x34246 $x34673) (<= (+ L_0 (* (- 1.0) A_1) S_3 ?x695) 0.0) (<= (+ ?x1548 (* (- 1.0) S_1) S_3) 0.0) (<= (+ ?x4767 S_3 (* (- 1.0) S_0)) 0.0) $x74870 (<= (+ ?x9650 L_0 (* (- 1.0) A_0) S_5) 0.0) (<= S_5 (+ A_2 ?x358 (* 3.0 C))) (<= (+ ?x1548 (* (- 1.0) S_2) S_4) 0.0) (<= (+ ?x1548 (* (- 1.0) S_3) S_5) 0.0) (<= (+ L_0 (* (- 1.0) A_1) ?x1548 S_4) 0.0) (<= (+ ?x9650 (* (- 1.0) S_0) S_4) 0.0) $x76008 (<= (+ ?x4767 (* (- 1.0) S_1) S_4) 0.0) (<= (+ ?x9650 (* (- 1.0) S_1) S_5) 0.0) (<= (+ (* (- 6.0) C) (* (- 1.0) S_0) S_5) 0.0) (<= (+ L_0 (* (- 1.0) A_1) ?x4767 S_5) 0.0) $x921 $x668 $x42 (<= (+ L_0 (* (- 1.0) A_0) S_0) 0.0) (<= (+ ?x4767 (* (- 1.0) S_2) S_5) 0.0))))))))))))))))))))))))))))))))))))))))))))))))))))))))))))))))))))))))))))))))))))))))))))))))))))))))))))))))))))))))))))))))))))))))))))))))))))))))))))))))))
(check-sat)
